letting n =  10
letting blocks =  [[1, 1], [1, 2], [1, 3], [1, 9], [2, 4], [2, 5], [2, 8], [2, 9], [3, 2], [3, 3], [3, 4], [3, 5], [3, 8], [3, 9], [4, 2], [4, 6], [4, 7], [4, 9], [4, 10], [5, 1], [5, 2], [5, 4], [6, 1], [6, 2], [6, 3], [6, 7], [6, 8], [6, 9], [7, 1], [7, 4], [7, 5], [7, 7], [8, 1], [8, 3], [8, 5], [8, 6], [8, 7], [8, 10], [9, 2], [9, 4], [9, 5], [9, 6], [9, 7], [9, 10], [10, 1], [10, 5], [10, 6], [10, 9]]
